letting initialStacks = [39, 50, 19, 35, 27, 47, 24, 36, 44, 8, 20, 4, 42, 34, 28, 26, 40, 13, 46, 16, 1, 18, 2, 14, 37, 49, 30, 3, 22, 41, 5, 25, 51, 6, 17, 12, 32, 10, 48, 7, 33, 23, 11, 21, 29, 45, 15, 38, 31, 9, 43]
